17	4	3
18	22	20	18	53	37	29	
0	0	0	0	0	5	2	10	2	10	8	3	2	3	4
7	1	7	3	0	8	1	2	9	7	9	3	6	7	8
10	0	5	0	9	2	2	6	1	8	1	1	5
3	0	0	0	9	8	9	7	2	8	2	3	9	10	17
1	2	0	10	5	10	10	6	10	10	4	1	12
250	7	0	8	3	9	4	6	8	6	6	2	15	17
250	0	0	3	1	6	3	6	7	1	3	2	11	17
25	6	0	4	0	6	3	5	1	4	3	2	17	17
225	6	0	9	3	1	1	1	8	3	9	1	17
75	0	0	0	8	9	2	8	5	1	7	3	13	14	17
250	0	7	0	3	9	9	1	5	7	6	2	17	17
150	7	0	0	0	10	2	8	5	9	9	2	14	17
4	7	4	0	0	8	4	2	2	5	5	3	15	16	17
6	0	8	0	10	5	6	6	5	3	8	3	15	16	17
3	3	0	9	0	4	1	9	2	6	10	1	17
9	0	8	0	5	9	4	9	9	8	5	1	17
0	0	0	0	0	5	7	6	3	2	4	0
